SATISFIABLE
# Atoms: 40
# Actions: 106
Trying with 2 states
# Atoms: 40
# Actions: 106
Cumulated solver time: 0.006430
Trying with 3 states
# Atoms: 40
# Actions: 106
Cumulated solver time: 0.012545
Trying with 4 states
# Atoms: 40
# Actions: 106
Cumulated solver time: 0.023157
